SCIP version 5.0.0 [precision: 8 byte] [memory: block] [mode: optimized] [LP solver: NONE] [GitHash: 3bbd232]
Copyright (C) 2002-2017 Konrad-Zuse-Zentrum fuer Informationstechnik Berlin (ZIB)

External codes: 
  Readline EditLine w  GNU library for command line editing (gnu.org/s/readline)
  CppAD 20160000.1     Algorithmic Differentiation of C++ algorithms developed by B. Bell (www.coin-or.org/CppAD)
  ZLIB 1.2.5           General purpose compression library by J. Gailly and M. Adler (zlib.net)
  GMP 6.1.2            GNU Multiple Precision Arithmetic Library developed by T. Granlund (gmplib.org)

user parameter file <scip.set> not found - using default parameters

read problem <../../Split_data/output/parkin/9/0_sample_parkin.logreg>
============

File name	:	../../Split_data/output/parkin/9/0_sample_parkin.logreg
Problem name 	:	0_sample_parkin
Number of data	:	156
Number of var	:	22
The given data has linear independence

[dim=1] time: 0.003975
[dim=2] time: 0.006853
[dim=3] time: 0.009616
[dim=4] time: 0.011859
[dim=5] time: 0.01409
[dim=6] time: 0.016395
[dim=7] Time of forward = 0.018526sec.
AIC: 102.201
k: 6

[dim=22] time: 0.057412
[dim=21] time: 0.06269
[dim=20] time: 0.078959
[dim=19] time: 0.097036
[dim=18] time: 0.103591
[dim=17] time: 0.120034
[dim=16] time: 0.147572
[dim=15] time: 0.152663
[dim=14] time: 0.163429
[dim=13] time: 0.169943
[dim=12] time: 0.175367
[dim=11] time: 0.179246
[dim=10] time: 0.180724
[dim=9] time: 0.182459
[dim=8] Time of backward = 0.183989sec.
AIC: 93.8702
k: 9
